(set-logic QF_LRA)
(declare-fun fluent_counter_t0@1 () Real)
(declare-fun fluent_started_i0_t0@0 () Bool)
(declare-fun fluent_started_i0_t1@0 () Bool)
(declare-fun fluent_started_i0_t2@0 () Bool)
(declare-fun fluent_started_i0_t3@0 () Bool)
(declare-fun fluent_started_i0_t4@0 () Bool)
(declare-fun fluent_started_i0_t5@0 () Bool)
(declare-fun fluent_started_i0_t6@0 () Bool)
(declare-fun fluent_counter_t1@1 () Real)
(declare-fun fluent_ready_i0_t0@0 () Bool)
(declare-fun fluent_ready_i0_t1@0 () Bool)
(declare-fun fluent_ready_i0_t2@0 () Bool)
(declare-fun fluent_ready_i0_t3@0 () Bool)
(declare-fun fluent_ready_i0_t4@0 () Bool)
(declare-fun fluent_ready_i0_t5@0 () Bool)
(declare-fun fluent_ready_i0_t6@0 () Bool)
(declare-fun fluent_counter_t2@1 () Real)
(declare-fun fluent_busy_@0 () Bool)
(declare-fun fluent_counter_t3@1 () Real)
(declare-fun fluent_treated_i0_t0@0 () Bool)
(declare-fun fluent_treated_i0_t1@0 () Bool)
(declare-fun fluent_treated_i0_t2@0 () Bool)
(declare-fun fluent_treated_i0_t3@0 () Bool)
(declare-fun fluent_treated_i0_t4@0 () Bool)
(declare-fun fluent_treated_i0_t5@0 () Bool)
(declare-fun fluent_treated_i0_t6@0 () Bool)
(declare-fun fluent_counter_t5@1 () Real)
(declare-fun fluent_counter_t6@1 () Real)
(declare-fun fluent_busy_@1 () Bool)
(declare-fun fluent_started_i0_t0@1 () Bool)
(declare-fun fluent_started_i0_t1@1 () Bool)
(declare-fun fluent_started_i0_t2@1 () Bool)
(declare-fun fluent_started_i0_t3@1 () Bool)
(declare-fun fluent_started_i0_t4@1 () Bool)
(declare-fun fluent_started_i0_t5@1 () Bool)
(declare-fun fluent_started_i0_t6@1 () Bool)
(declare-fun fluent_counter_t0@0 () Real)
(declare-fun fluent_counter_t1@0 () Real)
(declare-fun fluent_treated_i0_t0@1 () Bool)
(declare-fun fluent_treated_i0_t1@1 () Bool)
(declare-fun fluent_counter_t2@0 () Real)
(declare-fun fluent_treated_i0_t2@1 () Bool)
(declare-fun fluent_counter_t3@0 () Real)
(declare-fun fluent_treated_i0_t3@1 () Bool)
(declare-fun fluent_treated_i0_t4@1 () Bool)
(declare-fun fluent_counter_t4@0 () Real)
(declare-fun fluent_treated_i0_t5@1 () Bool)
(declare-fun fluent_counter_t5@0 () Real)
(declare-fun fluent_treated_i0_t6@1 () Bool)
(declare-fun fluent_counter_t6@0 () Real)
(declare-fun fluent_ready_i0_t0@1 () Bool)
(declare-fun fluent_ready_i0_t1@1 () Bool)
(declare-fun fluent_ready_i0_t2@1 () Bool)
(declare-fun dur_make_treatment@1 () Real)
(declare-fun fluent_ready_i0_t3@1 () Bool)
(declare-fun fluent_ready_i0_t4@1 () Bool)
(declare-fun t@1 () Real)
(declare-fun fluent_ready_i0_t5@1 () Bool)
(declare-fun fluent_ready_i0_t6@1 () Bool)
(declare-fun act_make_treatment@1 () Bool)
(declare-fun parameter_make_treatment_t@1 () Real)
(declare-fun parameter_make_treatment_i@1 () Real)
(declare-fun parameter_make_treatment_next@1 () Real)
(declare-fun fluent_counter_t4@1 () Real)
(assert (let ((.def_0 (<= fluent_counter_t4@1 31.0))) (let ((.def_1 (<= 0.0 fluent_counter_t4@1))) (let ((.def_2 (<= fluent_counter_t3@1 31.0))) (let ((.def_3 (<= 0.0 fluent_counter_t3@1))) (let ((.def_4 (<= fluent_counter_t2@1 31.0))) (let ((.def_5 (<= 0.0 fluent_counter_t2@1))) (let ((.def_6 (= parameter_make_treatment_next@1 7.0))) (let ((.def_7 (= parameter_make_treatment_next@1 6.0))) (let ((.def_8 (= parameter_make_treatment_next@1 5.0))) (let ((.def_9 (= parameter_make_treatment_next@1 4.0))) (let ((.def_10 (= parameter_make_treatment_next@1 3.0))) (let ((.def_11 (= parameter_make_treatment_next@1 2.0))) (let ((.def_12 (= parameter_make_treatment_next@1 1.0))) (let ((.def_13 (or .def_12 .def_11 .def_10 .def_9 .def_8 .def_7 .def_6))) (let ((.def_14 (<= fluent_counter_t1@1 31.0))) (let ((.def_15 (<= 0.0 fluent_counter_t1@1))) (let ((.def_16 (<= fluent_counter_t0@1 31.0))) (let ((.def_17 (= parameter_make_treatment_i@1 0.0))) (let ((.def_18 (<= 0.0 fluent_counter_t0@1))) (let ((.def_19 (= parameter_make_treatment_t@1 7.0))) (let ((.def_20 (= parameter_make_treatment_t@1 6.0))) (let ((.def_21 (= parameter_make_treatment_t@1 5.0))) (let ((.def_22 (= parameter_make_treatment_t@1 4.0))) (let ((.def_23 (= parameter_make_treatment_t@1 3.0))) (let ((.def_24 (= parameter_make_treatment_t@1 2.0))) (let ((.def_25 (= parameter_make_treatment_t@1 1.0))) (let ((.def_26 (or .def_25 .def_24 .def_23 .def_22 .def_21 .def_20 .def_19))) (let ((.def_27 (<= fluent_counter_t6@1 31.0))) (let ((.def_28 (<= 0.0 fluent_counter_t6@1))) (let ((.def_29 (<= fluent_counter_t5@1 31.0))) (let ((.def_30 (<= 0.0 fluent_counter_t5@1))) (let ((.def_31 (and act_make_treatment@1 true .def_19))) (let ((.def_32 (= fluent_counter_t6@0 fluent_counter_t6@1))) (let ((.def_33 (not .def_32))) (let ((.def_34 (=> .def_33 .def_31))) (let ((.def_35 (and act_make_treatment@1 true .def_20))) (let ((.def_36 (= fluent_counter_t5@0 fluent_counter_t5@1))) (let ((.def_37 (not .def_36))) (let ((.def_38 (=> .def_37 .def_35))) (let ((.def_39 (and act_make_treatment@1 true .def_21))) (let ((.def_40 (= fluent_counter_t4@0 fluent_counter_t4@1))) (let ((.def_41 (not .def_40))) (let ((.def_42 (=> .def_41 .def_39))) (let ((.def_43 (and act_make_treatment@1 true .def_22))) (let ((.def_44 (= fluent_counter_t3@0 fluent_counter_t3@1))) (let ((.def_45 (not .def_44))) (let ((.def_46 (=> .def_45 .def_43))) (let ((.def_47 (and act_make_treatment@1 true .def_23))) (let ((.def_48 (= fluent_counter_t2@0 fluent_counter_t2@1))) (let ((.def_49 (not .def_48))) (let ((.def_50 (=> .def_49 .def_47))) (let ((.def_51 (and act_make_treatment@1 true .def_24))) (let ((.def_52 (= fluent_counter_t1@0 fluent_counter_t1@1))) (let ((.def_53 (not .def_52))) (let ((.def_54 (=> .def_53 .def_51))) (let ((.def_55 (and act_make_treatment@1 true .def_25))) (let ((.def_56 (= fluent_counter_t0@0 fluent_counter_t0@1))) (let ((.def_57 (not .def_56))) (let ((.def_58 (=> .def_57 .def_55))) (let ((.def_59 (+ t@1 10.0))) (let ((.def_60 (= t@1 .def_59))) (let ((.def_61 (and act_make_treatment@1 true .def_60 .def_17 .def_6))) (let ((.def_62 (= fluent_ready_i0_t6@0 fluent_ready_i0_t6@1))) (let ((.def_63 (not .def_62))) (let ((.def_64 (=> .def_63 .def_61))) (let ((.def_65 (and act_make_treatment@1 true .def_60 .def_17 .def_7))) (let ((.def_66 (= fluent_ready_i0_t5@0 fluent_ready_i0_t5@1))) (let ((.def_67 (not .def_66))) (let ((.def_68 (=> .def_67 .def_65))) (let ((.def_69 (and act_make_treatment@1 true .def_60 .def_17 .def_8))) (let ((.def_70 (= fluent_ready_i0_t4@0 fluent_ready_i0_t4@1))) (let ((.def_71 (not .def_70))) (let ((.def_72 (=> .def_71 .def_69))) (let ((.def_73 (and act_make_treatment@1 true .def_60 .def_17 .def_9))) (let ((.def_74 (= fluent_ready_i0_t3@0 fluent_ready_i0_t3@1))) (let ((.def_75 (not .def_74))) (let ((.def_76 (=> .def_75 .def_73))) (let ((.def_77 (and act_make_treatment@1 true .def_60 .def_17 .def_10))) (let ((.def_78 (= fluent_ready_i0_t2@0 fluent_ready_i0_t2@1))) (let ((.def_79 (not .def_78))) (let ((.def_80 (=> .def_79 .def_77))) (let ((.def_81 (and act_make_treatment@1 true .def_60 .def_17 .def_11))) (let ((.def_82 (= fluent_ready_i0_t1@0 fluent_ready_i0_t1@1))) (let ((.def_83 (not .def_82))) (let ((.def_84 (=> .def_83 .def_81))) (let ((.def_85 (and act_make_treatment@1 true .def_60 .def_17 .def_12))) (let ((.def_86 (= fluent_ready_i0_t0@0 fluent_ready_i0_t0@1))) (let ((.def_87 (not .def_86))) (let ((.def_88 (=> .def_87 .def_85))) (let ((.def_89 (and act_make_treatment@1 true .def_17 .def_19))) (let ((.def_90 (= fluent_started_i0_t6@0 fluent_started_i0_t6@1))) (let ((.def_91 (not .def_90))) (let ((.def_92 (=> .def_91 .def_89))) (let ((.def_93 (and act_make_treatment@1 true .def_17 .def_20))) (let ((.def_94 (= fluent_started_i0_t5@0 fluent_started_i0_t5@1))) (let ((.def_95 (not .def_94))) (let ((.def_96 (=> .def_95 .def_93))) (let ((.def_97 (and act_make_treatment@1 true .def_17 .def_21))) (let ((.def_98 (= fluent_started_i0_t4@0 fluent_started_i0_t4@1))) (let ((.def_99 (not .def_98))) (let ((.def_100 (=> .def_99 .def_97))) (let ((.def_101 (and act_make_treatment@1 true .def_17 .def_22))) (let ((.def_102 (= fluent_started_i0_t3@0 fluent_started_i0_t3@1))) (let ((.def_103 (not .def_102))) (let ((.def_104 (=> .def_103 .def_101))) (let ((.def_105 (and act_make_treatment@1 true .def_17 .def_23))) (let ((.def_106 (= fluent_started_i0_t2@0 fluent_started_i0_t2@1))) (let ((.def_107 (not .def_106))) (let ((.def_108 (=> .def_107 .def_105))) (let ((.def_109 (and act_make_treatment@1 true .def_17 .def_24))) (let ((.def_110 (= fluent_started_i0_t1@0 fluent_started_i0_t1@1))) (let ((.def_111 (not .def_110))) (let ((.def_112 (=> .def_111 .def_109))) (let ((.def_113 (and act_make_treatment@1 true .def_17 .def_25))) (let ((.def_114 (= fluent_started_i0_t0@0 fluent_started_i0_t0@1))) (let ((.def_115 (not .def_114))) (let ((.def_116 (=> .def_115 .def_113))) (let ((.def_117 (+ t@1 4.0))) (let ((.def_118 (= t@1 .def_117))) (let ((.def_119 (and act_make_treatment@1 true .def_118 .def_17 .def_19))) (let ((.def_120 (= fluent_treated_i0_t6@0 fluent_treated_i0_t6@1))) (let ((.def_121 (not .def_120))) (let ((.def_122 (=> .def_121 .def_119))) (let ((.def_123 (and act_make_treatment@1 true .def_118 .def_17 .def_20))) (let ((.def_124 (= fluent_treated_i0_t5@0 fluent_treated_i0_t5@1))) (let ((.def_125 (not .def_124))) (let ((.def_126 (=> .def_125 .def_123))) (let ((.def_127 (and act_make_treatment@1 true .def_118 .def_17 .def_21))) (let ((.def_128 (= fluent_treated_i0_t4@0 fluent_treated_i0_t4@1))) (let ((.def_129 (not .def_128))) (let ((.def_130 (=> .def_129 .def_127))) (let ((.def_131 (and act_make_treatment@1 true .def_118 .def_17 .def_22))) (let ((.def_132 (= fluent_treated_i0_t3@0 fluent_treated_i0_t3@1))) (let ((.def_133 (not .def_132))) (let ((.def_134 (=> .def_133 .def_131))) (let ((.def_135 (and act_make_treatment@1 true .def_118 .def_17 .def_23))) (let ((.def_136 (= fluent_treated_i0_t2@0 fluent_treated_i0_t2@1))) (let ((.def_137 (not .def_136))) (let ((.def_138 (=> .def_137 .def_135))) (let ((.def_139 (and act_make_treatment@1 true .def_118 .def_17 .def_24))) (let ((.def_140 (= fluent_treated_i0_t1@0 fluent_treated_i0_t1@1))) (let ((.def_141 (not .def_140))) (let ((.def_142 (=> .def_141 .def_139))) (let ((.def_143 (and act_make_treatment@1 true .def_118 .def_17 .def_25))) (let ((.def_144 (= fluent_treated_i0_t0@0 fluent_treated_i0_t0@1))) (let ((.def_145 (not .def_144))) (let ((.def_146 (=> .def_145 .def_143))) (let ((.def_147 (and act_make_treatment@1 true .def_118))) (let ((.def_148 (and act_make_treatment@1 true))) (let ((.def_149 (and .def_148 .def_147))) (let ((.def_150 (not .def_149))) (let ((.def_151 (or .def_148 .def_147))) (let ((.def_152 (= fluent_busy_@0 fluent_busy_@1))) (let ((.def_153 (not .def_152))) (let ((.def_154 (=> .def_153 .def_151))) (let ((.def_155 (and .def_154 .def_150 .def_146 .def_142 .def_138 .def_134 .def_130 .def_126 .def_122 .def_116 .def_112 .def_108 .def_104 .def_100 .def_96 .def_92 .def_88 .def_84 .def_80 .def_76 .def_72 .def_68 .def_64 .def_58 .def_54 .def_50 .def_46 .def_42 .def_38 .def_34))) (let ((.def_156 (<= 0.0 t@1))) (let ((.def_157 (and .def_17 .def_11))) (let ((.def_158 (ite .def_157 fluent_ready_i0_t1@1 fluent_ready_i0_t0@1))) (let ((.def_159 (and .def_17 .def_10))) (let ((.def_160 (ite .def_159 fluent_ready_i0_t2@1 .def_158))) (let ((.def_161 (and .def_17 .def_9))) (let ((.def_162 (ite .def_161 fluent_ready_i0_t3@1 .def_160))) (let ((.def_163 (and .def_17 .def_8))) (let ((.def_164 (ite .def_163 fluent_ready_i0_t4@1 .def_162))) (let ((.def_165 (and .def_17 .def_7))) (let ((.def_166 (ite .def_165 fluent_ready_i0_t5@1 .def_164))) (let ((.def_167 (and .def_17 .def_6))) (let ((.def_168 (ite .def_167 fluent_ready_i0_t6@1 .def_166))) (let ((.def_169 (= .def_168 true))) (let ((.def_170 (=> true .def_169))) (let ((.def_171 (and .def_60 .def_170))) (let ((.def_172 (= fluent_busy_@1 false))) (let ((.def_173 (=> true .def_172))) (let ((.def_174 (and .def_17 .def_24))) (let ((.def_175 (ite .def_174 fluent_treated_i0_t1@1 fluent_treated_i0_t0@1))) (let ((.def_176 (and .def_17 .def_23))) (let ((.def_177 (ite .def_176 fluent_treated_i0_t2@1 .def_175))) (let ((.def_178 (and .def_17 .def_22))) (let ((.def_179 (ite .def_178 fluent_treated_i0_t3@1 .def_177))) (let ((.def_180 (and .def_17 .def_21))) (let ((.def_181 (ite .def_180 fluent_treated_i0_t4@1 .def_179))) (let ((.def_182 (and .def_17 .def_20))) (let ((.def_183 (ite .def_182 fluent_treated_i0_t5@1 .def_181))) (let ((.def_184 (and .def_17 .def_19))) (let ((.def_185 (ite .def_184 fluent_treated_i0_t6@1 .def_183))) (let ((.def_186 (= .def_185 true))) (let ((.def_187 (=> true .def_186))) (let ((.def_188 (and .def_118 .def_187 .def_173))) (let ((.def_189 (ite .def_174 fluent_started_i0_t1@1 fluent_started_i0_t0@1))) (let ((.def_190 (ite .def_176 fluent_started_i0_t2@1 .def_189))) (let ((.def_191 (ite .def_178 fluent_started_i0_t3@1 .def_190))) (let ((.def_192 (ite .def_180 fluent_started_i0_t4@1 .def_191))) (let ((.def_193 (ite .def_182 fluent_started_i0_t5@1 .def_192))) (let ((.def_194 (ite .def_184 fluent_started_i0_t6@1 .def_193))) (let ((.def_195 (= .def_194 true))) (let ((.def_196 (=> true .def_195))) (let ((.def_197 (= fluent_busy_@1 true))) (let ((.def_198 (=> true .def_197))) (let ((.def_199 (ite .def_24 fluent_counter_t1@0 fluent_counter_t0@0))) (let ((.def_200 (ite .def_23 fluent_counter_t2@0 .def_199))) (let ((.def_201 (ite .def_22 fluent_counter_t3@0 .def_200))) (let ((.def_202 (ite .def_21 fluent_counter_t4@0 .def_201))) (let ((.def_203 (ite .def_20 fluent_counter_t5@0 .def_202))) (let ((.def_204 (ite .def_19 fluent_counter_t6@0 .def_203))) (let ((.def_205 (+ .def_204 1.0))) (let ((.def_206 (ite .def_24 fluent_counter_t1@1 fluent_counter_t0@1))) (let ((.def_207 (ite .def_23 fluent_counter_t2@1 .def_206))) (let ((.def_208 (ite .def_22 fluent_counter_t3@1 .def_207))) (let ((.def_209 (ite .def_21 fluent_counter_t4@1 .def_208))) (let ((.def_210 (ite .def_20 fluent_counter_t5@1 .def_209))) (let ((.def_211 (ite .def_19 fluent_counter_t6@1 .def_210))) (let ((.def_212 (= .def_211 .def_205))) (let ((.def_213 (=> true .def_212))) (let ((.def_214 (= t@1 t@1))) (let ((.def_215 (and .def_214 .def_213 .def_198 .def_196))) (let ((.def_216 (ite .def_157 fluent_started_i0_t1@0 fluent_started_i0_t0@0))) (let ((.def_217 (ite .def_159 fluent_started_i0_t2@0 .def_216))) (let ((.def_218 (ite .def_161 fluent_started_i0_t3@0 .def_217))) (let ((.def_219 (ite .def_163 fluent_started_i0_t4@0 .def_218))) (let ((.def_220 (ite .def_165 fluent_started_i0_t5@0 .def_219))) (let ((.def_221 (ite .def_167 fluent_started_i0_t6@0 .def_220))) (let ((.def_222 (+ t@1 dur_make_treatment@1))) (let ((.def_223 (<= .def_222 t@1))) (let ((.def_224 (< (- 1.0) .def_222))) (let ((.def_225 (and .def_224 .def_223))) (let ((.def_226 (=> .def_225 .def_221))) (let ((.def_227 (ite .def_174 fluent_ready_i0_t1@0 fluent_ready_i0_t0@0))) (let ((.def_228 (ite .def_176 fluent_ready_i0_t2@0 .def_227))) (let ((.def_229 (ite .def_178 fluent_ready_i0_t3@0 .def_228))) (let ((.def_230 (ite .def_180 fluent_ready_i0_t4@0 .def_229))) (let ((.def_231 (ite .def_182 fluent_ready_i0_t5@0 .def_230))) (let ((.def_232 (ite .def_184 fluent_ready_i0_t6@0 .def_231))) (let ((.def_233 (ite .def_174 fluent_started_i0_t1@0 fluent_started_i0_t0@0))) (let ((.def_234 (ite .def_176 fluent_started_i0_t2@0 .def_233))) (let ((.def_235 (ite .def_178 fluent_started_i0_t3@0 .def_234))) (let ((.def_236 (ite .def_180 fluent_started_i0_t4@0 .def_235))) (let ((.def_237 (ite .def_182 fluent_started_i0_t5@0 .def_236))) (let ((.def_238 (ite .def_184 fluent_started_i0_t6@0 .def_237))) (let ((.def_239 (not .def_238))) (let ((.def_240 (ite .def_174 fluent_treated_i0_t1@0 fluent_treated_i0_t0@0))) (let ((.def_241 (ite .def_176 fluent_treated_i0_t2@0 .def_240))) (let ((.def_242 (ite .def_178 fluent_treated_i0_t3@0 .def_241))) (let ((.def_243 (ite .def_180 fluent_treated_i0_t4@0 .def_242))) (let ((.def_244 (ite .def_182 fluent_treated_i0_t5@0 .def_243))) (let ((.def_245 (ite .def_184 fluent_treated_i0_t6@0 .def_244))) (let ((.def_246 (not .def_245))) (let ((.def_247 (not fluent_busy_@0))) (let ((.def_248 (and .def_24 .def_12))) (let ((.def_249 (ite .def_248 false false))) (let ((.def_250 (and .def_23 .def_12))) (let ((.def_251 (ite .def_250 false .def_249))) (let ((.def_252 (and .def_22 .def_12))) (let ((.def_253 (ite .def_252 false .def_251))) (let ((.def_254 (and .def_21 .def_12))) (let ((.def_255 (ite .def_254 false .def_253))) (let ((.def_256 (and .def_20 .def_12))) (let ((.def_257 (ite .def_256 false .def_255))) (let ((.def_258 (and .def_19 .def_12))) (let ((.def_259 (ite .def_258 false .def_257))) (let ((.def_260 (and .def_25 .def_11))) (let ((.def_261 (ite .def_260 true .def_259))) (let ((.def_262 (and .def_24 .def_11))) (let ((.def_263 (ite .def_262 false .def_261))) (let ((.def_264 (and .def_23 .def_11))) (let ((.def_265 (ite .def_264 false .def_263))) (let ((.def_266 (and .def_22 .def_11))) (let ((.def_267 (ite .def_266 false .def_265))) (let ((.def_268 (and .def_21 .def_11))) (let ((.def_269 (ite .def_268 false .def_267))) (let ((.def_270 (and .def_20 .def_11))) (let ((.def_271 (ite .def_270 false .def_269))) (let ((.def_272 (and .def_19 .def_11))) (let ((.def_273 (ite .def_272 false .def_271))) (let ((.def_274 (and .def_25 .def_10))) (let ((.def_275 (ite .def_274 false .def_273))) (let ((.def_276 (and .def_24 .def_10))) (let ((.def_277 (ite .def_276 true .def_275))) (let ((.def_278 (and .def_23 .def_10))) (let ((.def_279 (ite .def_278 false .def_277))) (let ((.def_280 (and .def_22 .def_10))) (let ((.def_281 (ite .def_280 false .def_279))) (let ((.def_282 (and .def_21 .def_10))) (let ((.def_283 (ite .def_282 false .def_281))) (let ((.def_284 (and .def_20 .def_10))) (let ((.def_285 (ite .def_284 false .def_283))) (let ((.def_286 (and .def_19 .def_10))) (let ((.def_287 (ite .def_286 false .def_285))) (let ((.def_288 (and .def_25 .def_9))) (let ((.def_289 (ite .def_288 false .def_287))) (let ((.def_290 (and .def_24 .def_9))) (let ((.def_291 (ite .def_290 false .def_289))) (let ((.def_292 (and .def_23 .def_9))) (let ((.def_293 (ite .def_292 true .def_291))) (let ((.def_294 (and .def_22 .def_9))) (let ((.def_295 (ite .def_294 false .def_293))) (let ((.def_296 (and .def_21 .def_9))) (let ((.def_297 (ite .def_296 false .def_295))) (let ((.def_298 (and .def_20 .def_9))) (let ((.def_299 (ite .def_298 false .def_297))) (let ((.def_300 (and .def_19 .def_9))) (let ((.def_301 (ite .def_300 false .def_299))) (let ((.def_302 (and .def_25 .def_8))) (let ((.def_303 (ite .def_302 false .def_301))) (let ((.def_304 (and .def_24 .def_8))) (let ((.def_305 (ite .def_304 false .def_303))) (let ((.def_306 (and .def_23 .def_8))) (let ((.def_307 (ite .def_306 false .def_305))) (let ((.def_308 (and .def_22 .def_8))) (let ((.def_309 (ite .def_308 true .def_307))) (let ((.def_310 (and .def_21 .def_8))) (let ((.def_311 (ite .def_310 false .def_309))) (let ((.def_312 (and .def_20 .def_8))) (let ((.def_313 (ite .def_312 false .def_311))) (let ((.def_314 (and .def_19 .def_8))) (let ((.def_315 (ite .def_314 false .def_313))) (let ((.def_316 (and .def_25 .def_7))) (let ((.def_317 (ite .def_316 false .def_315))) (let ((.def_318 (and .def_24 .def_7))) (let ((.def_319 (ite .def_318 false .def_317))) (let ((.def_320 (and .def_23 .def_7))) (let ((.def_321 (ite .def_320 false .def_319))) (let ((.def_322 (and .def_22 .def_7))) (let ((.def_323 (ite .def_322 false .def_321))) (let ((.def_324 (and .def_21 .def_7))) (let ((.def_325 (ite .def_324 true .def_323))) (let ((.def_326 (and .def_20 .def_7))) (let ((.def_327 (ite .def_326 false .def_325))) (let ((.def_328 (and .def_19 .def_7))) (let ((.def_329 (ite .def_328 false .def_327))) (let ((.def_330 (and .def_25 .def_6))) (let ((.def_331 (ite .def_330 false .def_329))) (let ((.def_332 (and .def_24 .def_6))) (let ((.def_333 (ite .def_332 false .def_331))) (let ((.def_334 (and .def_23 .def_6))) (let ((.def_335 (ite .def_334 false .def_333))) (let ((.def_336 (and .def_22 .def_6))) (let ((.def_337 (ite .def_336 false .def_335))) (let ((.def_338 (and .def_21 .def_6))) (let ((.def_339 (ite .def_338 false .def_337))) (let ((.def_340 (and .def_20 .def_6))) (let ((.def_341 (ite .def_340 true .def_339))) (let ((.def_342 (and .def_19 .def_6))) (let ((.def_343 (ite .def_342 false .def_341))) (let ((.def_344 (= 0.0 .def_204))) (let ((.def_345 (and .def_344 .def_343 .def_247 .def_246 .def_239 .def_232))) (let ((.def_346 (<= t@1 t@1))) (let ((.def_347 (< (- 1.0) t@1))) (let ((.def_348 (and .def_347 .def_346))) (let ((.def_349 (=> .def_348 .def_345))) (let ((.def_350 (<= dur_make_treatment@1 15.0))) (let ((.def_351 (<= 15.0 dur_make_treatment@1))) (let ((.def_352 (and .def_351 .def_350))) (let ((.def_353 (and .def_352 .def_223 .def_349 .def_226 .def_215 .def_188 .def_171))) (let ((.def_354 (=> act_make_treatment@1 .def_353))) (let ((.def_355 (<= 0.0 fluent_counter_t1@0))) (let ((.def_356 (<= fluent_counter_t0@0 31.0))) (let ((.def_357 (<= 0.0 fluent_counter_t0@0))) (let ((.def_358 (<= fluent_counter_t6@0 31.0))) (let ((.def_359 (<= 0.0 fluent_counter_t6@0))) (let ((.def_360 (<= fluent_counter_t5@0 31.0))) (let ((.def_361 (<= 0.0 fluent_counter_t5@0))) (let ((.def_362 (<= fluent_counter_t4@0 31.0))) (let ((.def_363 (<= 0.0 fluent_counter_t4@0))) (let ((.def_364 (<= fluent_counter_t3@0 31.0))) (let ((.def_365 (<= 0.0 fluent_counter_t3@0))) (let ((.def_366 (<= fluent_counter_t2@0 31.0))) (let ((.def_367 (<= 0.0 fluent_counter_t2@0))) (let ((.def_368 (<= fluent_counter_t1@0 31.0))) (let ((.def_369 (= fluent_counter_t6@0 0.0))) (let ((.def_370 (= fluent_counter_t5@0 0.0))) (let ((.def_371 (= fluent_counter_t4@0 0.0))) (let ((.def_372 (= fluent_counter_t3@0 0.0))) (let ((.def_373 (= fluent_counter_t2@0 0.0))) (let ((.def_374 (= fluent_counter_t1@0 0.0))) (let ((.def_375 (= fluent_counter_t0@0 0.0))) (let ((.def_376 (= false false))) (let ((.def_377 (= fluent_ready_i0_t6@0 false))) (let ((.def_378 (= fluent_ready_i0_t5@0 false))) (let ((.def_379 (= fluent_ready_i0_t4@0 false))) (let ((.def_380 (= fluent_ready_i0_t3@0 false))) (let ((.def_381 (= fluent_ready_i0_t2@0 false))) (let ((.def_382 (= fluent_ready_i0_t1@0 false))) (let ((.def_383 (= fluent_started_i0_t5@0 false))) (let ((.def_384 (= fluent_started_i0_t4@0 false))) (let ((.def_385 (= fluent_started_i0_t3@0 false))) (let ((.def_386 (= fluent_started_i0_t2@0 false))) (let ((.def_387 (= fluent_started_i0_t1@0 false))) (let ((.def_388 (= fluent_started_i0_t0@0 false))) (let ((.def_389 (= fluent_treated_i0_t6@0 false))) (let ((.def_390 (= fluent_treated_i0_t5@0 false))) (let ((.def_391 (= fluent_treated_i0_t4@0 false))) (let ((.def_392 (= fluent_treated_i0_t3@0 false))) (let ((.def_393 (= fluent_treated_i0_t2@0 false))) (let ((.def_394 (= fluent_treated_i0_t1@0 false))) (let ((.def_395 (= fluent_treated_i0_t0@0 false))) (let ((.def_396 (= fluent_busy_@0 false))) (let ((.def_397 (= fluent_ready_i0_t0@0 true))) (let ((.def_398 (= fluent_started_i0_t6@0 true))) (let ((.def_399 (= true true))) (let ((.def_400 (= 0.0 0.0))) (let ((.def_401 (and .def_400 .def_399 .def_399 .def_399 .def_399 .def_399 .def_399 .def_398 .def_397 .def_396 .def_395 .def_394 .def_393 .def_392 .def_391 .def_390 .def_389 .def_388 .def_387 .def_386 .def_385 .def_384 .def_383 .def_382 .def_381 .def_380 .def_379 .def_378 .def_377 .def_376 .def_376 .def_376 .def_376 .def_376 .def_376 .def_376 .def_376 .def_376 .def_376 .def_376 .def_376 .def_376 .def_376 .def_376 .def_376 .def_376 .def_376 .def_376 .def_376 .def_376 .def_376 .def_376 .def_376 .def_376 .def_376 .def_376 .def_376 .def_376 .def_376 .def_376 .def_376 .def_376 .def_376 .def_376 .def_376 .def_376 .def_376 .def_376 .def_376 .def_376 .def_376 .def_376 .def_375 .def_374 .def_373 .def_372 .def_371 .def_370 .def_369 .def_368 .def_367 .def_366 .def_365 .def_364 .def_363 .def_362 .def_361 .def_360 .def_359 .def_358 .def_357 .def_356 .def_355))) (let ((.def_402 (and .def_401 .def_354 .def_156 true true .def_155 .def_30 .def_29 .def_28 .def_27 .def_26 .def_18 .def_17 .def_16 .def_15 .def_14 .def_13 .def_5 .def_4 .def_3 .def_2 .def_1 .def_0 true))) .def_402))))))))))))))))))))))))))))))))))))))))))))))))))))))))))))))))))))))))))))))))))))))))))))))))))))))))))))))))))))))))))))))))))))))))))))))))))))))))))))))))))))))))))))))))))))))))))))))))))))))))))))))))))))))))))))))))))))))))))))))))))))))))))))))))))))))))))))))))))))))))))))))))))))))))))))))))))))))))))))))))))))))))))))))))))))))))))))))))))))))))))))))))))))))))))))))))))))))))))))))))))))
(check-sat)
